424 5
10 10 10 10 10 

0 0 0 0 0 0 5 2 14 26 38 50 
0 0 0 0 0 0 1 3 
1 0 1 0 0 0 2 5 4 
4 0 2 0 0 0 1 6 
9 0 4 0 0 0 1 6 
10 0 5 0 0 0 1 7 
9 0 4 0 0 0 2 10 8 
10 0 2 0 0 0 2 9 410 
8 0 2 0 0 0 2 12 11 
10 0 1 0 0 0 1 11 
6 0 3 0 0 0 1 13 
8 0 1 0 0 0 1 13 
0 0 0 0 0 0 1 62 
0 0 0 0 0 0 1 15 
7 0 0 1 0 0 2 19 16 
9 0 0 2 0 0 2 24 17 
4 0 0 2 0 0 1 18 
7 0 0 2 0 0 2 20 271 
2 0 0 2 0 0 1 20 
5 0 0 4 0 0 1 21 
9 0 0 3 0 0 2 23 22 
2 0 0 3 0 0 1 25 
8 0 0 2 0 0 1 25 
10 0 0 4 0 0 1 25 
0 0 0 0 0 0 1 62 
0 0 0 0 0 0 2 27 36 
2 0 1 0 0 0 1 28 
6 0 3 0 0 0 2 33 29 
4 0 3 0 0 0 2 35 30 
9 0 2 0 0 0 1 31 
2 0 3 0 0 0 1 32 
6 0 1 0 0 0 1 34 
8 0 4 0 0 0 2 35 53 
10 0 1 0 0 0 1 37 
3 0 3 0 0 0 1 37 
1 0 4 0 0 0 1 37 
0 0 0 0 0 0 1 62 
0 0 0 0 0 0 1 39 
7 1 0 0 0 0 3 41 40 78 
3 2 0 0 0 0 2 44 42 
7 5 0 0 0 0 2 43 42 
5 1 0 0 0 0 1 45 
5 1 0 0 0 0 1 45 
8 3 0 0 0 0 1 45 
10 3 0 0 0 0 1 46 
9 1 0 0 0 0 1 47 
3 6 0 0 0 0 1 48 
7 2 0 0 0 0 1 49 
0 0 0 0 0 0 1 62 
0 0 0 0 0 0 2 51 53 
2 1 0 0 0 0 2 57 52 
6 2 0 0 0 0 1 54 
2 1 0 0 0 0 4 60 57 56 90 
10 3 0 0 0 0 2 60 55 
4 3 0 0 0 0 1 56 
4 1 0 0 0 0 1 58 
3 3 0 0 0 0 1 58 
6 3 0 0 0 0 1 59 
8 2 0 0 0 0 1 61 
2 6 0 0 0 0 1 61 
0 0 0 0 0 0 1 62 
0 0 0 0 0 0 5 63 75 87 99 111 
0 0 0 0 0 0 2 64 65 
7 0 0 1 0 0 2 69 66 
8 0 0 2 0 0 2 69 68 
2 0 0 1 0 0 1 67 
2 0 0 3 0 0 1 68 
9 0 0 1 0 0 2 73 70 
5 0 0 4 0 0 2 73 71 
6 0 0 3 0 0 1 71 
1 0 0 4 0 0 2 72 384 
5 0 0 4 0 0 1 74 
8 0 0 2 0 0 1 74 
0 0 0 0 0 0 1 123 
0 0 0 0 0 0 1 76 
9 0 0 1 0 0 2 79 77 
7 0 0 1 0 0 2 78 213 
8 0 0 2 0 0 2 81 80 
8 0 0 6 0 0 2 81 80 
1 0 0 2 0 0 2 83 82 
2 0 0 3 0 0 1 82 
8 0 0 1 0 0 1 84 
10 0 0 2 0 0 1 84 
7 0 0 3 0 0 1 85 
4 0 0 4 0 0 1 86 
0 0 0 0 0 0 1 123 
0 0 0 0 0 0 3 88 89 91 
7 0 0 1 0 0 3 97 90 328 
5 0 0 1 0 0 2 97 93 
2 0 0 2 0 0 1 92 
10 0 0 2 0 0 2 97 94 
9 0 0 2 0 0 1 93 
6 0 0 3 0 0 1 94 
1 0 0 3 0 0 1 95 
2 0 0 4 0 0 1 96 
5 0 0 4 0 0 1 98 
4 0 0 3 0 0 1 98 
0 0 0 0 0 0 1 123 
0 0 0 0 0 0 1 100 
3 1 0 0 0 0 2 106 101 
5 5 0 0 0 0 2 105 102 
2 3 0 0 0 0 2 109 103 
7 1 0 0 0 0 1 104 
9 2 0 0 0 0 1 107 
5 2 0 0 0 0 2 107 127 
4 3 0 0 0 0 1 107 
7 2 0 0 0 0 1 108 
9 2 0 0 0 0 1 110 
8 4 0 0 0 0 1 110 
0 0 0 0 0 0 1 123 
0 0 0 0 0 0 1 112 
8 0 0 0 1 0 2 115 113 
9 0 0 0 3 0 1 114 
9 0 0 0 1 0 2 118 116 
6 0 0 0 4 0 2 118 117 
8 0 0 0 3 0 2 117 408 
7 0 0 0 4 0 2 121 119 
5 0 0 0 2 0 2 121 119 
8 0 0 0 2 0 1 120 
6 0 0 0 3 0 1 122 
3 0 0 0 2 0 1 122 
0 0 0 0 0 0 1 123 
0 0 0 0 0 0 5 124 136 168 200 232 
0 0 0 0 0 0 3 125 127 132 
3 0 0 1 0 0 1 126 
6 0 0 2 0 0 2 134 128 
3 0 0 1 0 0 2 134 128 
8 0 0 2 0 0 1 129 
7 0 0 6 0 0 1 130 
8 0 0 3 0 0 1 131 
6 0 0 4 0 0 2 133 365 
6 0 0 2 0 0 1 133 
4 0 0 3 0 0 1 135 
2 0 0 1 0 0 1 135 
0 0 0 0 0 0 5 264 286 298 320 342 
0 0 0 0 0 0 4 137 164 165 166 
6 1 0 1 0 1 2 163 138 
3 4 0 1 0 1 1 139 
2 3 0 3 0 4 2 162 140 
2 5 0 2 0 1 2 161 141 
2 2 0 3 0 2 2 160 142 
7 2 0 4 0 4 1 143 
9 1 0 2 0 1 1 144 
2 2 0 3 0 4 1 145 
4 1 0 5 0 3 1 146 
6 4 0 2 0 2 1 147 
2 3 0 4 0 1 1 148 
1 2 0 2 0 2 2 159 149 
5 4 0 2 0 2 1 150 
2 2 0 3 0 2 1 151 
9 3 0 5 0 2 1 152 
2 3 0 1 0 4 1 153 
2 1 0 2 0 2 1 154 
3 3 0 3 0 3 1 155 
4 2 0 1 0 3 1 156 
2 2 0 1 0 5 2 157 269 
9 1 0 3 0 2 1 158 
6 1 0 4 0 2 1 167 
9 3 0 2 0 2 1 167 
6 2 0 2 0 4 1 167 
5 1 0 3 0 3 1 167 
4 2 0 4 0 5 1 167 
4 6 0 2 0 4 1 167 
7 3 0 2 0 1 1 167 
3 2 0 1 0 1 1 167 
5 4 0 2 0 2 1 167 
0 0 0 0 0 0 1 424 
0 0 0 0 0 0 2 169 172 
9 1 0 1 1 0 1 170 
7 2 0 1 1 0 1 171 
10 3 0 2 2 0 2 174 173 
2 4 0 2 3 0 1 173 
7 1 0 4 2 0 1 175 
7 5 0 1 4 0 1 175 
10 1 0 3 4 0 2 179 176 
10 2 0 4 2 0 2 182 177 
3 1 0 2 1 0 1 178 
5 2 0 4 3 0 2 186 180 
3 2 0 4 3 0 2 182 180 
8 2 0 6 2 0 1 181 
9 1 0 3 1 0 2 188 183 
2 2 0 2 3 0 2 188 183 
3 2 0 4 3 0 1 184 
7 4 0 3 3 0 2 195 185 
6 6 0 3 2 0 2 193 187 
9 3 0 3 3 0 3 195 193 190 
2 2 0 3 2 0 1 189 
2 3 0 2 1 0 1 189 
5 3 0 1 2 0 1 190 
7 4 0 2 1 0 1 191 
8 2 0 1 6 0 1 192 
6 4 0 2 3 0 1 194 
7 3 0 1 4 0 1 194 
9 1 0 4 3 0 1 196 
8 1 0 2 1 0 1 196 
6 2 0 1 1 0 1 197 
9 5 0 2 3 0 1 198 
5 1 0 2 5 0 1 199 
0 0 0 0 0 0 1 424 
0 0 0 0 0 0 2 201 209 
7 0 1 1 1 0 1 202 
2 0 1 1 1 0 1 203 
3 0 3 2 5 0 1 204 
2 0 3 1 7 0 1 205 
2 0 4 3 4 0 2 212 206 
4 0 3 3 2 0 1 207 
6 0 5 5 3 0 1 208 
2 0 3 3 3 0 3 216 213 210 
7 0 2 3 5 0 1 210 
9 0 4 2 2 0 2 215 211 
5 0 3 2 2 0 3 219 218 214 
6 0 2 5 2 0 2 218 214 
8 0 2 2 2 0 2 218 217 
5 0 2 1 2 0 1 217 
10 0 3 3 3 0 1 217 
5 0 1 3 2 0 1 218 
10 0 3 3 2 0 1 220 
6 0 1 5 2 0 1 220 
10 0 3 3 2 0 1 220 
1 0 1 5 2 0 1 221 
1 0 4 1 2 0 1 222 
2 0 3 2 4 0 2 226 223 
10 0 1 1 2 0 1 224 
7 0 2 3 1 0 1 225 
2 0 1 3 1 0 1 227 
1 0 1 2 2 0 1 227 
7 0 2 1 3 0 1 228 
1 0 4 3 2 0 1 229 
9 0 2 1 1 0 1 230 
6 0 5 2 3 0 1 231 
0 0 0 0 0 0 1 424 
0 0 0 0 0 0 2 233 236 
10 0 1 0 1 1 1 234 
5 0 1 0 3 2 1 235 
8 0 2 0 1 5 2 238 237 
8 0 1 0 4 1 1 237 
5 0 2 0 2 2 1 239 
8 0 3 0 4 4 1 239 
7 0 1 0 3 2 2 243 240 
6 0 4 0 1 1 1 241 
5 0 1 0 3 3 2 245 242 
4 0 4 0 3 7 2 250 244 
4 0 2 0 2 2 2 245 244 
4 0 2 0 1 2 1 246 
8 0 4 0 1 2 1 246 
9 0 4 0 3 1 2 252 247 
4 0 4 0 2 1 1 248 
7 0 7 0 2 3 2 258 249 
8 0 2 0 2 1 2 257 251 
2 0 2 0 7 2 3 258 257 254 
9 0 2 0 3 3 1 253 
9 0 1 0 4 3 1 253 
1 0 2 0 1 3 1 254 
8 0 5 0 1 2 1 255 
5 0 4 0 5 1 1 256 
9 0 3 0 2 4 1 259 
2 0 2 0 1 3 1 259 
6 0 1 0 3 4 1 259 
5 0 3 0 3 4 1 260 
9 0 3 0 2 2 1 261 
2 0 1 0 2 3 1 262 
4 0 1 0 3 1 1 263 
0 0 0 0 0 0 1 424 
0 0 0 0 0 0 1 265 
7 0 1 1 0 0 2 272 266 
4 0 1 2 0 0 1 267 
9 0 1 1 0 0 1 268 
6 0 2 4 0 0 2 275 269 
3 0 1 1 0 0 1 270 
4 0 1 5 0 0 2 277 271 
10 0 1 4 0 0 1 273 
5 0 1 2 0 0 1 273 
10 0 3 1 0 0 2 281 274 
6 0 4 2 0 0 1 276 
4 0 5 2 0 0 1 277 
3 0 4 1 0 0 2 282 278 
3 0 3 2 0 0 2 281 278 
4 0 2 2 0 0 1 279 
4 0 5 4 0 0 1 280 
10 0 3 1 0 0 1 283 
6 0 5 4 0 0 1 283 
5 0 2 5 0 0 1 283 
1 0 3 4 0 0 1 284 
9 0 2 2 0 0 1 285 
0 0 0 0 0 0 1 424 
0 0 0 0 0 0 3 287 290 291 
3 0 0 0 0 1 1 288 
8 0 0 0 0 3 1 289 
6 0 0 0 0 4 2 296 292 
6 0 0 0 0 1 2 296 292 
8 0 0 0 0 1 2 296 293 
9 0 0 0 0 3 1 293 
10 0 0 0 0 3 1 294 
7 0 0 0 0 1 1 295 
9 0 0 0 0 5 1 297 
8 0 0 0 0 3 1 297 
0 0 0 0 0 0 5 364 376 388 400 412 
0 0 0 0 0 0 1 299 
3 0 1 0 0 1 2 302 300 
5 0 3 0 0 3 2 304 301 
3 0 3 0 0 2 1 303 
8 0 1 0 0 1 1 303 
1 0 2 0 0 2 1 305 
1 0 2 0 0 3 1 305 
6 0 1 0 0 3 1 306 
10 0 3 0 0 1 2 308 307 
1 0 1 0 0 3 2 312 309 
7 0 6 0 0 3 2 312 310 
10 0 3 0 0 2 1 310 
4 0 4 0 0 3 1 311 
7 0 2 0 0 3 2 314 313 
9 0 3 0 0 3 2 314 313 
9 0 2 0 0 2 1 315 
7 0 4 0 0 2 1 315 
10 0 1 0 0 1 1 316 
10 0 1 0 0 5 1 317 
10 0 3 0 0 4 1 318 
5 0 4 0 0 3 1 319 
0 0 0 0 0 0 1 424 
0 0 0 0 0 0 1 321 
4 0 0 0 1 1 2 325 322 
7 0 0 0 1 2 1 323 
10 0 0 0 3 3 1 324 
8 0 0 0 4 2 1 326 
2 0 0 0 1 2 1 326 
4 0 0 0 3 1 1 327 
2 0 0 0 1 2 2 329 328 
8 0 0 0 3 3 1 330 
10 0 0 0 3 7 1 330 
4 0 0 0 2 3 2 333 331 
2 0 0 0 2 3 2 334 332 
9 0 0 0 3 3 1 335 
8 0 0 0 1 1 1 334 
3 0 0 0 2 2 2 338 336 
4 0 0 0 4 2 2 338 336 
2 0 0 0 4 1 1 337 
6 0 0 0 2 3 1 339 
9 0 0 0 4 4 1 339 
9 0 0 0 2 2 1 340 
10 0 0 0 4 3 1 341 
0 0 0 0 0 0 1 424 
0 0 0 0 0 0 1 343 
3 0 0 1 1 0 2 362 344 
8 0 0 2 2 0 2 361 345 
10 0 0 2 1 0 2 360 346 
4 0 0 5 4 0 1 347 
3 0 0 4 3 0 1 348 
8 0 0 3 2 0 1 349 
4 0 0 1 2 0 2 359 350 
8 0 0 2 5 0 1 351 
6 0 0 1 3 0 2 358 352 
5 0 0 1 1 0 1 353 
9 0 0 4 3 0 1 354 
7 0 0 2 1 0 1 355 
3 0 0 4 1 0 1 356 
7 0 0 2 2 0 1 357 
9 0 0 2 3 0 1 363 
5 0 0 6 2 0 1 363 
6 0 0 2 4 0 1 363 
9 0 0 2 1 0 1 363 
4 0 0 3 6 0 1 363 
7 0 0 1 3 0 1 363 
0 0 0 0 0 0 1 424 
0 0 0 0 0 0 3 365 367 368 
9 0 1 0 0 0 1 366 
9 0 3 0 0 0 1 369 
2 0 3 0 0 0 1 369 
4 0 3 0 0 0 1 369 
7 0 2 0 0 0 1 370 
1 0 3 0 0 0 1 371 
2 0 2 0 0 0 2 374 372 
5 0 4 0 0 0 1 373 
3 0 3 0 0 0 1 375 
2 0 1 0 0 0 1 375 
0 0 0 0 0 0 1 424 
0 0 0 0 0 0 1 377 
8 0 0 1 0 0 2 379 378 
2 0 0 2 0 0 2 386 381 
10 0 0 3 0 0 1 380 
4 0 0 2 0 0 1 381 
5 0 0 1 0 0 2 385 382 
8 0 0 2 0 0 1 383 
10 0 0 2 0 0 1 384 
5 0 0 3 0 0 1 387 
9 0 0 2 0 0 1 387 
1 0 0 7 0 0 1 387 
0 0 0 0 0 0 1 424 
0 0 0 0 0 0 3 389 392 396 
8 1 0 0 0 0 1 390 
2 1 0 0 0 0 1 391 
6 3 0 0 0 0 2 398 393 
8 1 0 0 0 0 1 393 
9 3 0 0 0 0 1 394 
2 3 0 0 0 0 1 395 
6 2 0 0 0 0 1 397 
10 2 0 0 0 0 1 397 
6 4 0 0 0 0 1 399 
1 5 0 0 0 0 1 399 
0 0 0 0 0 0 1 424 
0 0 0 0 0 0 2 401 403 
5 0 0 0 0 1 1 402 
5 0 0 0 0 3 2 405 404 
10 0 0 0 0 4 2 405 404 
1 0 0 0 0 5 2 408 406 
6 0 0 0 0 2 2 408 406 
1 0 0 0 0 2 1 407 
10 0 0 0 0 2 1 409 
7 0 0 0 0 2 1 409 
2 0 0 0 0 1 1 410 
4 0 0 0 0 3 1 411 
0 0 0 0 0 0 1 424 
0 0 0 0 0 0 3 413 415 417 
3 0 0 1 0 0 1 414 
6 0 0 1 0 0 2 421 416 
2 0 0 3 0 0 2 421 418 
1 0 0 4 0 0 1 418 
1 0 0 4 0 0 1 418 
8 0 0 4 0 0 1 419 
8 0 0 1 0 0 1 420 
10 0 0 3 0 0 1 422 
6 0 0 1 0 0 1 422 
7 0 0 3 0 0 1 423 
0 0 0 0 0 0 1 424 
0 0 0 0 0 0 0 
